HorasDisponibles = 24 ; 		% Cantidad de horas habiles para que barco pueda partir

NumBarcos = 54 ; 		% Cantidad de barcos que cruzaran el canal

NumCanales = 3;  

Velocidades = [ 
66000  ,		%  Barco 1
66000  ,		%  Barco 2
66000  ,		%  Barco 3
641  ,		%  Barco 4
607  ,		%  Barco 5
364  ,		%  Barco 6
438  ,		%  Barco 7
301  ,		%  Barco 8
416  ,		%  Barco 9
775  ,		%  Barco 10
522  ,		%  Barco 11
576  ,		%  Barco 12
815  ,		%  Barco 13
432  ,		%  Barco 14
441  ,		%  Barco 15
165  ,		%  Barco 16
501  ,		%  Barco 17
503  ,		%  Barco 18
417  ,		%  Barco 19
614  ,		%  Barco 20
238  ,		%  Barco 21
525  ,		%  Barco 22
483  ,		%  Barco 23
332  ,		%  Barco 24
786  ,		%  Barco 25
425  ,		%  Barco 26
631  ,		%  Barco 27
650  ,		%  Barco 28
352  ,		%  Barco 29
441  ,		%  Barco 30
555  ,		%  Barco 31
763  ,		%  Barco 32
411  ,		%  Barco 33
571  ,		%  Barco 34
183  ,		%  Barco 35
418  ,		%  Barco 36
724  ,		%  Barco 37
533  ,		%  Barco 38
718  ,		%  Barco 39
665  ,		%  Barco 40
708  ,		%  Barco 41
418  ,		%  Barco 42
688  ,		%  Barco 43
285  ,		%  Barco 44
433  ,		%  Barco 45
373  ,		%  Barco 46
623  ,		%  Barco 47
834  ,		%  Barco 48
434  ,		%  Barco 49
304  ,		%  Barco 50
635  ,		%  Barco 51
606  ,		%  Barco 52
666  ,		%  Barco 53
525  ,		%  Barco 54
533  ,		%  Barco 55
482  ,		%  Barco 56
662  ,		%  Barco 57
66000  ,		%  Barco 58
66000  ,		%  Barco 59
66000  ,		%  Barco 60
 ]; 
HoraEstimadaCruce = [ 
0  ,		%  Barco 1
0  ,		%  Barco 2
0  ,		%  Barco 3
12  ,		%  Barco 4
8  ,		%  Barco 5
1  ,		%  Barco 6
17  ,		%  Barco 7
14  ,		%  Barco 8
6  ,		%  Barco 9
11  ,		%  Barco 10
10  ,		%  Barco 11
21  ,		%  Barco 12
2  ,		%  Barco 13
20  ,		%  Barco 14
5  ,		%  Barco 15
14  ,		%  Barco 16
22  ,		%  Barco 17
3  ,		%  Barco 18
7  ,		%  Barco 19
22  ,		%  Barco 20
21  ,		%  Barco 21
23  ,		%  Barco 22
16  ,		%  Barco 23
12  ,		%  Barco 24
4  ,		%  Barco 25
19  ,		%  Barco 26
20  ,		%  Barco 27
16  ,		%  Barco 28
6  ,		%  Barco 29
16  ,		%  Barco 30
22  ,		%  Barco 31
4  ,		%  Barco 32
21  ,		%  Barco 33
12  ,		%  Barco 34
2  ,		%  Barco 35
11  ,		%  Barco 36
24  ,		%  Barco 37
12  ,		%  Barco 38
20  ,		%  Barco 39
24  ,		%  Barco 40
6  ,		%  Barco 41
15  ,		%  Barco 42
10  ,		%  Barco 43
1  ,		%  Barco 44
22  ,		%  Barco 45
16  ,		%  Barco 46
9  ,		%  Barco 47
2  ,		%  Barco 48
9  ,		%  Barco 49
15  ,		%  Barco 50
21  ,		%  Barco 51
7  ,		%  Barco 52
7  ,		%  Barco 53
5  ,		%  Barco 54
19  ,		%  Barco 55
3  ,		%  Barco 56
18  ,		%  Barco 57
24  ,		%  Barco 58
24  ,		%  Barco 59
24  ,		%  Barco 60
 ]; 
PuntoDeArranque = [ 
0  ,		%  Barco 1
0  ,		%  Barco 2
0  ,		%  Barco 3
0  ,		%  Barco 4
1  ,		%  Barco 5
1  ,		%  Barco 6
1  ,		%  Barco 7
0  ,		%  Barco 8
1  ,		%  Barco 9
1  ,		%  Barco 10
1  ,		%  Barco 11
0  ,		%  Barco 12
1  ,		%  Barco 13
1  ,		%  Barco 14
1  ,		%  Barco 15
0  ,		%  Barco 16
0  ,		%  Barco 17
1  ,		%  Barco 18
0  ,		%  Barco 19
0  ,		%  Barco 20
0  ,		%  Barco 21
1  ,		%  Barco 22
0  ,		%  Barco 23
0  ,		%  Barco 24
1  ,		%  Barco 25
1  ,		%  Barco 26
0  ,		%  Barco 27
1  ,		%  Barco 28
0  ,		%  Barco 29
1  ,		%  Barco 30
1  ,		%  Barco 31
1  ,		%  Barco 32
1  ,		%  Barco 33
1  ,		%  Barco 34
0  ,		%  Barco 35
0  ,		%  Barco 36
0  ,		%  Barco 37
0  ,		%  Barco 38
1  ,		%  Barco 39
0  ,		%  Barco 40
0  ,		%  Barco 41
0  ,		%  Barco 42
1  ,		%  Barco 43
1  ,		%  Barco 44
0  ,		%  Barco 45
1  ,		%  Barco 46
0  ,		%  Barco 47
0  ,		%  Barco 48
0  ,		%  Barco 49
1  ,		%  Barco 50
0  ,		%  Barco 51
1  ,		%  Barco 52
1  ,		%  Barco 53
0  ,		%  Barco 54
0  ,		%  Barco 55
0  ,		%  Barco 56
0  ,		%  Barco 57
0  ,		%  Barco 58
0  ,		%  Barco 59
0  ,		%  Barco 60
 ]; 
